p edge 55 54
e 1 50
e 1 49
e 2 8
e 2 3
e 2 39
e 2 36
e 3 37
e 4 41
e 5 8
e 6 31
e 6 40
e 6 54
e 6 25
e 7 21
e 7 22
e 7 25
e 7 23
e 9 20
e 9 48
e 10 18
e 10 14
e 11 52
e 11 45
e 12 48
e 13 36
e 13 46
e 14 41
e 14 49
e 15 16
e 15 43
e 15 27
e 15 29
e 16 19
e 17 18
e 18 38
e 18 53
e 22 28
e 22 49
e 23 55
e 24 44
e 26 48
e 27 35
e 28 34
e 28 45
e 29 38
e 30 35
e 32 38
e 33 44
e 33 39
e 35 47
e 42 46
e 42 45
e 48 52
e 51 52
